cluster_editing/exact/simple_reductions/graphs/exact063.gr.metis
129 2476
10 16 19 24 45 50 63 90 94 95 108 
8 13 15 17 22 27 28 29 31 32 37 39 42 52 54 55 69 71 72 73 74 89 91 96 98 101 103 107 109 110 112 114 117 118 120 121 123 126 128 
72 82 125 
5 8 9 13 14 17 18 21 22 27 28 29 30 31 34 37 38 39 40 42 47 52 54 55 61 65 66 67 68 69 71 72 73 74 75 76 78 79 80 87 89 91 92 96 97 99 101 103 104 105 109 110 111 112 114 115 116 117 118 120 121 123 126 128 
4 8 9 13 14 17 18 21 22 27 28 29 30 31 34 37 38 39 40 42 47 52 54 55 61 65 66 67 68 69 71 72 73 74 75 76 78 79 80 87 89 91 92 96 97 99 101 103 104 105 109 110 111 112 114 115 116 117 118 120 121 123 126 128 
49 57 94 127 
8 21 22 26 30 33 35 40 43 47 59 67 71 72 77 80 81 86 87 91 93 97 105 106 111 118 119 121 124 
2 4 5 7 9 13 14 15 17 18 21 22 26 27 28 29 30 31 32 34 37 38 39 40 42 43 47 52 54 55 59 60 61 65 66 67 68 69 71 72 73 74 75 76 78 79 80 85 86 87 89 91 92 93 96 97 98 99 101 103 104 105 106 107 109 110 111 112 114 115 116 117 118 119 120 121 123 126 128 
4 5 8 13 17 18 21 22 27 29 30 31 34 37 38 39 40 42 47 52 54 55 60 61 65 66 67 69 71 72 73 74 75 76 78 79 80 87 89 91 92 96 97 101 103 104 105 109 110 111 112 114 115 116 117 118 120 121 126 128 
1 16 19 24 45 50 63 90 94 95 108 

36 51 58 62 102 113 129 
2 4 5 8 9 14 15 17 18 21 22 25 27 28 29 30 31 32 34 37 38 39 40 42 47 52 54 55 60 61 65 66 68 69 71 72 73 74 75 76 78 79 80 87 88 89 91 92 96 97 98 99 101 103 104 105 107 109 110 111 112 114 115 116 117 118 120 121 123 126 128 
4 5 8 13 17 22 27 29 31 34 37 38 39 42 47 52 54 55 61 65 69 71 72 74 75 76 79 80 89 91 96 101 103 104 109 110 114 116 117 120 123 126 128 
2 8 13 22 27 28 29 31 32 37 39 42 52 54 55 71 72 73 74 89 91 98 101 103 107 109 110 112 114 117 120 121 123 126 128 
1 10 19 24 45 50 63 90 95 108 
2 4 5 8 9 13 14 18 21 22 27 28 29 30 31 32 34 37 38 39 40 42 47 52 54 55 60 61 65 66 68 69 71 72 73 74 75 76 78 79 80 87 88 89 91 92 96 97 99 101 103 104 105 107 109 110 111 112 114 115 116 117 118 120 121 123 126 128 
4 5 8 9 13 17 21 22 29 31 33 34 37 38 40 42 47 52 54 61 65 66 67 69 71 72 73 76 78 79 80 87 89 91 92 96 97 101 103 105 111 114 115 116 117 118 121 128 
1 10 16 24 45 50 63 90 95 108 
70 
4 5 7 8 9 13 17 18 22 23 29 30 31 33 34 35 37 38 39 40 42 43 46 47 52 54 55 56 59 61 65 66 67 68 69 71 72 73 76 77 80 81 85 86 87 89 91 93 96 97 99 100 101 103 105 106 109 110 111 112 114 115 116 117 118 119 120 121 123 124 126 128 
2 4 5 7 8 9 13 14 15 17 18 21 25 27 28 29 30 31 32 34 37 38 39 40 42 43 47 52 54 55 60 61 65 66 67 68 69 71 72 73 74 75 76 78 79 80 86 87 88 89 91 92 93 96 97 98 99 101 103 104 105 106 107 109 110 111 112 114 115 116 117 118 120 121 123 126 128 
21 46 80 87 97 100 121 
1 10 16 19 45 50 63 90 95 108 
13 22 31 37 61 68 69 72 73 88 91 101 117 128 
7 8 30 33 35 40 43 59 77 81 86 93 105 106 111 118 119 124 
2 4 5 8 9 13 14 15 17 22 28 29 31 32 34 37 38 39 42 52 54 55 61 65 69 71 72 73 74 75 76 78 79 89 91 96 98 101 103 104 107 109 110 112 114 116 117 118 120 123 126 128 
2 4 5 8 13 15 17 22 27 29 31 32 34 37 38 39 40 42 52 54 55 65 69 71 72 73 74 89 91 96 98 101 103 107 109 110 112 114 117 120 123 126 128 
2 4 5 8 9 13 14 15 17 18 21 22 27 28 30 31 32 34 37 38 39 40 42 47 52 54 55 60 61 65 66 67 68 69 71 72 73 74 75 76 78 79 80 85 86 87 89 91 92 93 96 97 98 99 101 103 104 105 107 109 110 111 112 114 115 116 117 118 120 121 123 126 128 
4 5 7 8 9 13 17 21 22 26 29 33 34 37 40 42 43 47 54 59 61 66 67 69 71 72 73 80 81 85 86 87 89 91 93 96 97 101 103 105 106 111 114 115 116 117 118 121 122 124 128 
2 4 5 8 9 13 14 15 17 18 21 22 25 27 28 29 32 34 37 38 39 40 42 47 52 54 55 59 60 61 65 66 67 68 69 71 72 73 74 75 76 78 79 80 87 88 89 91 92 96 97 98 99 101 103 104 105 107 109 110 111 112 114 115 116 117 118 120 121 123 126 128 
2 8 13 15 17 22 27 28 29 31 37 38 39 40 42 52 54 55 65 69 71 72 73 74 89 91 96 98 99 101 103 107 109 110 112 114 117 120 123 126 128 
7 18 21 26 30 35 43 47 59 77 80 81 85 86 87 93 97 105 106 111 118 119 121 124 
4 5 8 9 13 14 17 18 21 22 27 28 29 30 31 37 38 39 40 42 47 52 54 55 61 65 66 68 69 71 72 73 74 75 76 78 79 80 87 89 91 92 96 97 98 101 103 104 105 107 109 110 111 112 114 115 116 117 118 120 121 123 126 128 
7 21 26 33 43 48 59 77 80 81 86 87 93 97 106 119 121 124 
12 51 58 62 102 113 129 
2 4 5 8 9 13 14 15 17 18 21 22 25 27 28 29 30 31 32 34 38 39 40 42 47 52 54 55 60 61 65 66 67 68 69 71 72 73 74 75 76 78 79 80 87 89 91 92 96 97 98 99 101 103 104 105 106 107 109 110 111 112 114 115 116 117 118 120 121 123 126 128 
4 5 8 9 13 14 17 18 21 22 27 28 29 31 32 34 37 39 40 42 47 52 54 55 61 65 66 68 69 71 72 73 74 75 76 78 79 80 87 89 91 92 96 97 98 99 101 103 105 107 109 110 111 112 114 115 116 117 118 120 121 123 126 128 
2 4 5 8 9 13 14 15 17 21 22 27 28 29 31 32 34 37 38 40 42 47 52 54 55 61 65 66 68 69 71 72 73 74 75 76 78 79 80 87 89 91 92 96 97 98 99 101 103 104 107 109 110 111 112 114 115 116 117 118 120 121 123 126 128 
4 5 7 8 9 13 17 18 21 22 26 28 29 30 31 32 34 37 38 39 42 43 47 52 54 55 56 59 60 61 65 66 67 68 69 71 72 73 76 78 79 80 85 86 87 89 91 93 96 97 99 101 103 105 106 109 111 112 114 115 116 117 118 119 120 121 122 126 128 

2 4 5 8 9 13 14 15 17 18 21 22 27 28 29 30 31 32 34 37 38 39 40 47 52 54 55 60 61 65 66 68 69 71 72 73 74 75 76 78 79 80 85 87 88 89 91 92 96 97 98 99 101 103 104 105 106 107 109 110 111 112 114 115 116 117 118 120 121 123 126 128 
7 8 21 22 26 30 33 35 40 47 59 67 69 71 77 80 81 85 86 87 91 93 97 105 106 111 119 121 124 
122 
1 10 16 19 24 50 63 90 95 108 
21 23 80 87 97 100 121 
4 5 7 8 9 13 14 17 18 21 22 29 30 31 33 34 37 38 39 40 42 43 52 54 55 56 59 61 65 66 67 68 69 71 72 73 80 81 85 86 87 89 91 93 96 97 99 101 103 105 106 109 111 112 114 115 116 117 118 120 121 124 126 128 
35 77 106 
6 94 127 
1 10 16 19 24 45 63 90 95 108 
12 36 58 62 102 113 129 
2 4 5 8 9 13 14 15 17 18 21 22 27 28 29 31 32 34 37 38 39 40 42 47 54 55 61 65 66 68 69 71 72 73 74 75 76 78 79 80 89 91 92 96 97 98 99 101 103 104 107 109 110 111 112 114 115 116 117 118 120 121 123 126 128 
84 
2 4 5 8 9 13 14 15 17 18 21 22 27 28 29 30 31 32 34 37 38 39 40 42 47 52 55 60 61 65 66 67 68 69 71 72 73 74 75 76 78 79 80 87 89 91 92 96 97 98 99 101 103 104 105 107 109 110 111 112 114 115 116 117 118 120 121 123 126 128 
2 4 5 8 9 13 14 15 17 21 22 27 28 29 31 32 34 37 38 39 40 42 47 52 54 61 65 66 68 69 71 72 73 74 75 76 78 79 80 87 89 91 96 97 98 99 101 103 104 107 109 110 111 112 114 115 116 117 118 120 121 123 126 128 
21 40 47 80 87 97 121 
6 64 94 127 
12 36 51 62 102 113 129 
7 8 21 26 30 31 33 35 40 43 47 69 77 80 81 86 87 91 93 97 105 106 111 118 119 121 124 
8 9 13 17 22 29 31 37 40 42 54 61 69 72 73 89 91 96 99 101 103 114 117 118 128 
4 5 8 9 13 14 17 18 21 22 25 27 29 30 31 34 37 38 39 40 42 47 52 54 55 60 65 68 69 71 72 73 74 75 76 78 79 80 87 89 91 92 96 97 99 101 103 104 105 109 110 111 112 114 115 116 117 118 120 121 123 126 128 
12 36 51 58 102 113 129 
1 10 16 19 24 45 50 90 94 95 108 
57 83 94 127 
4 5 8 9 13 14 17 18 21 22 27 28 29 31 32 34 37 38 39 40 42 47 52 54 55 61 66 68 69 71 72 73 74 75 76 78 79 80 86 87 89 91 92 96 97 99 101 103 104 105 106 109 110 111 112 114 116 117 118 120 121 123 126 128 
4 5 8 9 13 17 18 21 22 29 30 31 34 37 38 39 40 42 47 52 54 55 65 67 69 71 72 76 79 80 87 89 91 92 96 97 99 101 103 105 109 111 114 115 116 117 118 120 121 123 126 128 
4 5 7 8 9 18 21 22 29 30 31 37 40 43 47 54 66 71 72 73 79 80 86 87 89 91 92 93 96 97 103 105 111 114 115 116 117 118 121 128 
4 5 8 13 17 21 22 25 29 31 34 37 38 39 40 42 47 52 54 55 61 65 69 71 72 73 75 76 78 79 87 89 91 92 96 97 99 101 103 104 109 111 112 114 115 116 117 118 120 123 126 128 
2 4 5 8 9 13 14 17 18 21 22 25 27 28 29 30 31 32 34 37 38 39 40 42 43 47 52 54 55 59 60 61 65 66 68 71 72 73 74 75 76 78 79 80 86 87 88 89 91 92 96 97 99 101 103 104 105 106 109 110 111 112 114 115 116 117 118 120 121 123 126 128 
20 
2 4 5 7 8 9 13 14 15 17 18 21 22 27 28 29 30 31 32 34 37 38 39 40 42 43 47 52 54 55 61 65 66 67 68 69 72 73 74 75 76 78 79 80 86 87 88 89 91 92 93 96 97 98 99 101 103 104 105 107 109 110 111 112 114 115 116 117 118 120 121 123 126 128 
2 3 4 5 7 8 9 13 14 15 17 18 21 22 25 27 28 29 30 31 32 34 37 38 39 40 42 47 52 54 55 60 61 65 66 67 68 69 71 73 74 75 76 78 79 80 86 87 88 89 91 92 93 96 97 98 99 101 103 104 105 106 107 109 110 111 112 114 115 116 117 118 119 120 121 123 126 128 
2 4 5 8 9 13 15 17 18 21 22 25 27 28 29 30 31 32 34 37 38 39 40 42 47 52 54 55 60 61 65 67 68 69 71 72 74 75 76 78 79 80 85 87 89 91 92 96 97 98 99 101 103 104 105 107 109 110 111 112 114 115 116 117 118 120 121 123 126 128 
2 4 5 8 9 13 14 15 17 22 27 28 29 31 32 34 37 38 39 42 52 54 55 61 65 69 71 72 73 75 76 78 89 91 96 98 101 103 104 107 109 110 112 114 116 117 118 120 123 126 128 
4 5 8 9 13 14 17 22 27 29 31 34 37 38 39 42 52 54 55 61 65 68 69 71 72 73 74 76 78 89 91 96 101 103 104 109 110 112 114 117 118 120 123 126 128 
4 5 8 9 13 14 17 18 21 22 27 29 31 34 37 38 39 40 42 52 54 55 61 65 66 68 69 71 72 73 74 75 78 79 89 91 92 96 99 101 103 104 109 110 111 112 114 115 116 117 118 120 123 126 128 
7 21 26 33 35 43 48 59 80 86 87 93 97 106 119 121 
4 5 8 9 13 17 18 22 27 29 31 34 37 38 39 40 42 52 54 55 61 65 68 69 71 72 73 74 75 76 79 80 87 89 91 92 96 97 99 101 103 104 105 109 110 111 112 114 116 117 118 120 121 123 126 128 
4 5 8 9 13 14 17 18 22 27 29 31 34 37 38 39 40 42 52 54 55 61 65 66 67 68 69 71 72 73 76 78 89 91 92 96 99 101 103 105 109 110 111 112 114 115 116 117 118 120 121 123 126 128 
4 5 7 8 9 13 14 17 18 21 22 23 29 30 31 33 34 35 37 38 39 40 42 43 46 47 52 54 55 56 59 61 65 66 67 69 71 72 73 77 78 81 85 86 87 89 91 93 96 97 99 100 101 103 105 106 109 110 111 112 114 115 116 117 118 119 120 121 123 124 126 128 
7 21 26 30 33 35 43 47 59 80 86 87 93 97 105 106 111 119 121 124 
3 125 
64 94 
53 
8 21 29 30 33 40 42 43 47 73 80 87 97 105 106 111 115 117 118 121 
7 8 21 22 26 29 30 33 35 40 43 47 59 65 67 69 71 72 77 80 81 87 89 91 93 97 105 106 111 118 119 121 124 128 
4 5 7 8 9 13 17 18 21 22 23 29 30 31 33 34 35 37 38 39 40 42 43 46 47 54 55 56 59 61 65 66 67 68 69 71 72 73 77 78 80 81 85 86 89 91 93 96 97 99 100 101 103 105 106 109 111 112 114 115 116 117 118 119 120 121 123 124 126 128 
13 17 22 25 31 42 69 71 72 89 91 101 103 117 
2 4 5 8 9 13 14 15 17 18 21 22 27 28 29 30 31 32 34 37 38 39 40 42 47 52 54 55 60 61 65 66 67 68 69 71 72 73 74 75 76 78 79 80 86 87 88 91 92 96 97 98 99 101 103 104 105 107 109 110 111 112 114 115 116 117 118 120 121 123 126 128 
1 10 16 19 24 45 50 63 95 108 
2 4 5 7 8 9 13 14 15 17 18 21 22 25 27 28 29 30 31 32 34 37 38 39 40 42 43 47 52 54 55 59 60 61 65 66 67 68 69 71 72 73 74 75 76 78 79 80 86 87 88 89 92 96 97 98 99 101 103 104 105 106 107 109 110 111 112 114 115 116 117 118 120 121 123 126 128 
4 5 8 9 13 17 18 22 29 31 34 37 38 39 42 52 54 61 65 66 67 68 69 71 72 73 76 78 79 89 91 96 101 103 111 112 114 115 116 117 118 128 
7 8 21 22 26 29 30 33 35 40 43 47 59 67 71 72 77 80 81 86 87 97 105 106 111 118 119 121 124 128 
1 6 10 49 57 63 64 83 127 
1 10 16 19 24 45 50 63 90 108 
2 4 5 8 9 13 14 17 18 21 22 27 28 29 30 31 32 34 37 38 39 40 42 47 52 54 55 60 61 65 66 67 68 69 71 72 73 74 75 76 78 79 80 87 89 91 92 97 99 101 103 104 105 109 110 111 112 114 115 116 117 118 120 121 123 126 128 
4 5 7 8 9 13 17 18 21 22 23 29 30 31 33 34 35 37 38 39 40 42 43 46 47 52 54 55 56 59 61 65 66 67 68 69 71 72 73 77 78 80 81 85 86 87 89 91 93 96 99 100 101 103 105 106 109 111 112 114 115 116 117 118 119 120 121 123 124 126 128 
2 8 13 15 22 27 28 29 31 32 34 37 38 39 42 52 54 55 71 72 73 74 89 91 101 103 107 109 110 114 117 120 123 126 128 
4 5 8 13 17 21 22 29 31 32 37 38 39 40 42 47 52 54 55 60 61 65 66 68 69 71 72 73 76 78 79 80 87 89 91 96 97 101 103 104 109 110 111 112 114 115 116 117 118 120 121 123 126 128 
21 23 46 80 87 97 121 
2 4 5 8 9 13 14 15 17 18 21 22 25 27 28 29 30 31 32 34 37 38 39 40 42 47 52 54 55 60 61 65 66 68 69 71 72 73 74 75 76 78 79 80 87 88 89 91 92 96 97 98 99 103 104 105 107 109 110 111 112 114 115 116 117 118 120 121 123 126 128 
12 36 51 58 62 113 129 
2 4 5 8 9 13 14 15 17 18 21 22 27 28 29 30 31 32 34 37 38 39 40 42 47 52 54 55 60 61 65 66 67 68 69 71 72 73 74 75 76 78 79 80 87 88 89 91 92 96 97 98 99 101 104 105 106 107 109 110 111 112 114 115 116 117 118 120 121 123 126 128 
4 5 8 9 13 14 17 22 27 29 31 34 37 39 42 52 54 55 61 65 68 69 71 72 73 74 75 76 78 89 91 96 99 101 103 109 110 112 114 117 118 120 123 126 128 
4 5 7 8 9 13 17 18 21 22 26 29 30 31 33 34 37 38 40 42 43 47 54 59 61 65 66 67 69 71 72 73 78 79 80 81 85 86 87 89 91 93 96 97 101 103 106 111 114 115 116 117 118 119 121 122 124 128 
7 8 21 22 26 30 33 35 37 40 42 43 47 48 59 65 69 72 77 80 81 85 86 87 91 93 97 103 105 111 114 118 119 121 124 
2 8 13 15 17 22 27 28 29 31 32 34 37 38 39 42 52 54 55 71 72 73 74 89 91 98 101 103 109 110 112 114 117 118 120 123 126 128 
1 10 16 19 24 45 50 63 90 95 
2 4 5 8 9 13 14 15 17 21 22 27 28 29 31 32 34 37 38 39 40 42 47 52 54 55 61 65 66 68 69 71 72 73 74 75 76 78 79 80 87 89 91 96 97 98 99 101 103 104 107 110 111 112 114 115 116 117 118 120 121 123 126 128 
2 4 5 8 9 13 14 15 17 21 22 27 28 29 31 32 34 37 38 39 42 52 54 55 61 65 69 71 72 73 74 75 76 78 79 80 89 91 96 98 99 101 103 104 107 109 112 114 116 117 118 120 123 126 128 
4 5 7 8 9 13 17 18 21 22 26 29 30 31 33 34 37 38 39 40 42 43 47 52 54 55 59 61 65 66 67 68 69 71 72 73 76 78 79 80 81 85 86 87 89 91 92 93 96 97 99 101 103 105 106 109 114 115 116 117 118 119 120 121 123 124 126 128 
2 4 5 8 9 13 15 17 21 22 27 28 29 31 32 34 37 38 39 40 42 47 52 54 55 61 65 68 69 71 72 73 74 75 76 78 79 80 87 89 91 92 96 97 99 101 103 104 107 109 110 114 115 116 117 118 120 121 123 126 128 
12 36 51 58 62 102 129 
2 4 5 8 9 13 14 15 17 18 21 22 27 28 29 30 31 32 34 37 38 39 40 42 47 52 54 55 60 61 65 66 67 68 69 71 72 73 74 75 76 78 79 80 87 89 91 92 96 97 98 99 101 103 104 105 106 107 109 110 111 112 115 116 117 118 120 121 123 126 128 
4 5 8 9 13 17 18 21 22 29 30 31 34 37 38 39 40 42 47 52 54 55 61 66 67 68 69 71 72 73 76 79 80 85 87 89 91 92 96 97 99 101 103 105 109 111 112 114 116 117 118 120 121 123 126 128 
4 5 8 9 13 14 17 18 21 22 27 29 30 31 34 37 38 39 40 42 47 52 54 55 61 65 66 67 68 69 71 72 73 74 76 78 79 80 87 89 91 92 96 97 99 101 103 105 109 110 111 112 114 115 117 118 120 121 123 126 128 
2 4 5 8 9 13 14 15 17 18 21 22 25 27 28 29 30 31 32 34 37 38 39 40 42 47 52 54 55 60 61 65 66 67 68 69 71 72 73 74 75 76 78 79 80 85 87 88 89 91 92 96 97 98 99 101 103 104 105 107 109 110 111 112 114 115 116 118 120 121 123 126 128 
2 4 5 7 8 9 13 17 18 21 22 26 27 29 30 31 33 34 37 38 39 40 42 47 52 54 55 59 60 61 65 66 67 68 69 71 72 73 74 75 76 78 79 80 85 86 87 89 91 92 93 96 97 99 101 103 104 105 106 107 109 110 111 112 114 115 116 117 119 120 121 123 126 128 
7 8 21 26 33 35 40 43 59 72 77 80 81 86 87 93 97 105 106 111 118 121 124 
2 4 5 8 9 13 14 15 17 21 22 27 28 29 31 32 34 37 38 39 40 42 47 52 54 55 61 65 66 68 69 71 72 73 74 75 76 78 79 80 87 89 91 96 97 98 99 101 103 104 107 109 110 111 112 114 115 116 117 118 121 123 126 128 
2 4 5 7 8 9 13 15 17 18 21 22 23 29 30 31 33 34 35 37 38 39 40 42 43 46 47 52 54 55 56 59 61 65 66 67 69 71 72 73 77 78 79 80 81 85 86 87 89 91 93 96 97 99 100 101 103 105 106 109 111 112 114 115 116 117 118 119 120 123 124 126 128 
30 40 44 105 
2 4 5 8 13 14 15 17 21 22 27 28 29 31 32 34 37 38 39 42 52 54 55 61 65 66 68 69 71 72 73 74 75 76 78 79 80 87 89 91 96 97 98 99 101 103 104 107 109 110 111 112 114 115 116 117 118 120 121 126 128 
7 21 26 30 33 35 43 47 59 80 81 86 87 93 97 105 106 111 119 121 
3 82 
2 4 5 8 9 13 14 15 17 21 22 27 28 29 31 32 34 37 38 39 40 42 47 52 54 55 61 65 66 68 69 71 72 73 74 75 76 78 79 80 87 89 91 96 97 98 99 101 103 104 107 109 110 111 112 114 115 116 117 118 120 121 123 128 
6 49 57 64 94 
2 4 5 8 9 13 14 15 17 18 21 22 25 27 28 29 30 31 32 34 37 38 39 40 42 47 52 54 55 60 61 65 66 67 68 69 71 72 73 74 75 76 78 79 80 86 87 89 91 92 93 96 97 98 99 101 103 104 105 107 109 110 111 112 114 115 116 117 118 120 121 123 126 
12 36 51 58 62 102 113 
