instances/exact/exact063.gr
p cep 129 2476
1 10
1 16
1 19
1 24
1 45
1 50
1 63
1 90
1 94
1 95
1 108
2 8
2 13
2 15
2 17
2 22
2 27
2 28
2 29
2 31
2 32
2 37
2 39
2 42
2 52
2 54
2 55
2 69
2 71
2 72
2 73
2 74
2 89
2 91
2 96
2 98
2 101
2 103
2 107
2 109
2 110
2 112
2 114
2 117
2 118
2 120
2 121
2 123
2 126
2 128
3 72
3 82
3 125
4 5
4 8
4 9
4 13
4 14
4 17
4 18
4 21
4 22
4 27
4 28
4 29
4 30
4 31
4 34
4 37
4 38
4 39
4 40
4 42
4 47
4 52
4 54
4 55
4 61
4 65
4 66
4 67
4 68
4 69
4 71
4 72
4 73
4 74
4 75
4 76
4 78
4 79
4 80
4 87
4 89
4 91
4 92
4 96
4 97
4 99
4 101
4 103
4 104
4 105
4 109
4 110
4 111
4 112
4 114
4 115
4 116
4 117
4 118
4 120
4 121
4 123
4 126
4 128
5 8
5 9
5 13
5 14
5 17
5 18
5 21
5 22
5 27
5 28
5 29
5 30
5 31
5 34
5 37
5 38
5 39
5 40
5 42
5 47
5 52
5 54
5 55
5 61
5 65
5 66
5 67
5 68
5 69
5 71
5 72
5 73
5 74
5 75
5 76
5 78
5 79
5 80
5 87
5 89
5 91
5 92
5 96
5 97
5 99
5 101
5 103
5 104
5 105
5 109
5 110
5 111
5 112
5 114
5 115
5 116
5 117
5 118
5 120
5 121
5 123
5 126
5 128
6 49
6 57
6 94
6 127
7 8
7 21
7 22
7 26
7 30
7 33
7 35
7 40
7 43
7 47
7 59
7 67
7 71
7 72
7 77
7 80
7 81
7 86
7 87
7 91
7 93
7 97
7 105
7 106
7 111
7 118
7 119
7 121
7 124
8 9
8 13
8 14
8 15
8 17
8 18
8 21
8 22
8 26
8 27
8 28
8 29
8 30
8 31
8 32
8 34
8 37
8 38
8 39
8 40
8 42
8 43
8 47
8 52
8 54
8 55
8 59
8 60
8 61
8 65
8 66
8 67
8 68
8 69
8 71
8 72
8 73
8 74
8 75
8 76
8 78
8 79
8 80
8 85
8 86
8 87
8 89
8 91
8 92
8 93
8 96
8 97
8 98
8 99
8 101
8 103
8 104
8 105
8 106
8 107
8 109
8 110
8 111
8 112
8 114
8 115
8 116
8 117
8 118
8 119
8 120
8 121
8 123
8 126
8 128
9 13
9 17
9 18
9 21
9 22
9 27
9 29
9 30
9 31
9 34
9 37
9 38
9 39
9 40
9 42
9 47
9 52
9 54
9 55
9 60
9 61
9 65
9 66
9 67
9 69
9 71
9 72
9 73
9 74
9 75
9 76
9 78
9 79
9 80
9 87
9 89
9 91
9 92
9 96
9 97
9 101
9 103
9 104
9 105
9 109
9 110
9 111
9 112
9 114
9 115
9 116
9 117
9 118
9 120
9 121
9 126
9 128
10 16
10 19
10 24
10 45
10 50
10 63
10 90
10 94
10 95
10 108
12 36
12 51
12 58
12 62
12 102
12 113
12 129
13 14
13 15
13 17
13 18
13 21
13 22
13 25
13 27
13 28
13 29
13 30
13 31
13 32
13 34
13 37
13 38
13 39
13 40
13 42
13 47
13 52
13 54
13 55
13 60
13 61
13 65
13 66
13 68
13 69
13 71
13 72
13 73
13 74
13 75
13 76
13 78
13 79
13 80
13 87
13 88
13 89
13 91
13 92
13 96
13 97
13 98
13 99
13 101
13 103
13 104
13 105
13 107
13 109
13 110
13 111
13 112
13 114
13 115
13 116
13 117
13 118
13 120
13 121
13 123
13 126
13 128
14 17
14 22
14 27
14 29
14 31
14 34
14 37
14 38
14 39
14 42
14 47
14 52
14 54
14 55
14 61
14 65
14 69
14 71
14 72
14 74
14 75
14 76
14 79
14 80
14 89
14 91
14 96
14 101
14 103
14 104
14 109
14 110
14 114
14 116
14 117
14 120
14 123
14 126
14 128
15 22
15 27
15 28
15 29
15 31
15 32
15 37
15 39
15 42
15 52
15 54
15 55
15 71
15 72
15 73
15 74
15 89
15 91
15 98
15 101
15 103
15 107
15 109
15 110
15 112
15 114
15 117
15 120
15 121
15 123
15 126
15 128
16 19
16 24
16 45
16 50
16 63
16 90
16 95
16 108
17 18
17 21
17 22
17 27
17 28
17 29
17 30
17 31
17 32
17 34
17 37
17 38
17 39
17 40
17 42
17 47
17 52
17 54
17 55
17 60
17 61
17 65
17 66
17 68
17 69
17 71
17 72
17 73
17 74
17 75
17 76
17 78
17 79
17 80
17 87
17 88
17 89
17 91
17 92
17 96
17 97
17 99
17 101
17 103
17 104
17 105
17 107
17 109
17 110
17 111
17 112
17 114
17 115
17 116
17 117
17 118
17 120
17 121
17 123
17 126
17 128
18 21
18 22
18 29
18 31
18 33
18 34
18 37
18 38
18 40
18 42
18 47
18 52
18 54
18 61
18 65
18 66
18 67
18 69
18 71
18 72
18 73
18 76
18 78
18 79
18 80
18 87
18 89
18 91
18 92
18 96
18 97
18 101
18 103
18 105
18 111
18 114
18 115
18 116
18 117
18 118
18 121
18 128
19 24
19 45
19 50
19 63
19 90
19 95
19 108
20 70
21 22
21 23
21 29
21 30
21 31
21 33
21 34
21 35
21 37
21 38
21 39
21 40
21 42
21 43
21 46
21 47
21 52
21 54
21 55
21 56
21 59
21 61
21 65
21 66
21 67
21 68
21 69
21 71
21 72
21 73
21 76
21 77
21 80
21 81
21 85
21 86
21 87
21 89
21 91
21 93
21 96
21 97
21 99
21 100
21 101
21 103
21 105
21 106
21 109
21 110
21 111
21 112
21 114
21 115
21 116
21 117
21 118
21 119
21 120
21 121
21 123
21 124
21 126
21 128
22 25
22 27
22 28
22 29
22 30
22 31
22 32
22 34
22 37
22 38
22 39
22 40
22 42
22 43
22 47
22 52
22 54
22 55
22 60
22 61
22 65
22 66
22 67
22 68
22 69
22 71
22 72
22 73
22 74
22 75
22 76
22 78
22 79
22 80
22 86
22 87
22 88
22 89
22 91
22 92
22 93
22 96
22 97
22 98
22 99
22 101
22 103
22 104
22 105
22 106
22 107
22 109
22 110
22 111
22 112
22 114
22 115
22 116
22 117
22 118
22 120
22 121
22 123
22 126
22 128
23 46
23 80
23 87
23 97
23 100
23 121
24 45
24 50
24 63
24 90
24 95
24 108
25 31
25 37
25 61
25 68
25 69
25 72
25 73
25 88
25 91
25 101
25 117
25 128
26 30
26 33
26 35
26 40
26 43
26 59
26 77
26 81
26 86
26 93
26 105
26 106
26 111
26 118
26 119
26 124
27 28
27 29
27 31
27 32
27 34
27 37
27 38
27 39
27 42
27 52
27 54
27 55
27 61
27 65
27 69
27 71
27 72
27 73
27 74
27 75
27 76
27 78
27 79
27 89
27 91
27 96
27 98
27 101
27 103
27 104
27 107
27 109
27 110
27 112
27 114
27 116
27 117
27 118
27 120
27 123
27 126
27 128
28 29
28 31
28 32
28 34
28 37
28 38
28 39
28 40
28 42
28 52
28 54
28 55
28 65
28 69
28 71
28 72
28 73
28 74
28 89
28 91
28 96
28 98
28 101
28 103
28 107
28 109
28 110
28 112
28 114
28 117
28 120
28 123
28 126
28 128
29 30
29 31
29 32
29 34
29 37
29 38
29 39
29 40
29 42
29 47
29 52
29 54
29 55
29 60
29 61
29 65
29 66
29 67
29 68
29 69
29 71
29 72
29 73
29 74
29 75
29 76
29 78
29 79
29 80
29 85
29 86
29 87
29 89
29 91
29 92
29 93
29 96
29 97
29 98
29 99
29 101
29 103
29 104
29 105
29 107
29 109
29 110
29 111
29 112
29 114
29 115
29 116
29 117
29 118
29 120
29 121
29 123
29 126
29 128
30 33
30 34
30 37
30 40
30 42
30 43
30 47
30 54
30 59
30 61
30 66
30 67
30 69
30 71
30 72
30 73
30 80
30 81
30 85
30 86
30 87
30 89
30 91
30 93
30 96
30 97
30 101
30 103
30 105
30 106
30 111
30 114
30 115
30 116
30 117
30 118
30 121
30 122
30 124
30 128
31 32
31 34
31 37
31 38
31 39
31 40
31 42
31 47
31 52
31 54
31 55
31 59
31 60
31 61
31 65
31 66
31 67
31 68
31 69
31 71
31 72
31 73
31 74
31 75
31 76
31 78
31 79
31 80
31 87
31 88
31 89
31 91
31 92
31 96
31 97
31 98
31 99
31 101
31 103
31 104
31 105
31 107
31 109
31 110
31 111
31 112
31 114
31 115
31 116
31 117
31 118
31 120
31 121
31 123
31 126
31 128
32 37
32 38
32 39
32 40
32 42
32 52
32 54
32 55
32 65
32 69
32 71
32 72
32 73
32 74
32 89
32 91
32 96
32 98
32 99
32 101
32 103
32 107
32 109
32 110
32 112
32 114
32 117
32 120
32 123
32 126
32 128
33 35
33 43
33 47
33 59
33 77
33 80
33 81
33 85
33 86
33 87
33 93
33 97
33 105
33 106
33 111
33 118
33 119
33 121
33 124
34 37
34 38
34 39
34 40
34 42
34 47
34 52
34 54
34 55
34 61
34 65
34 66
34 68
34 69
34 71
34 72
34 73
34 74
34 75
34 76
34 78
34 79
34 80
34 87
34 89
34 91
34 92
34 96
34 97
34 98
34 101
34 103
34 104
34 105
34 107
34 109
34 110
34 111
34 112
34 114
34 115
34 116
34 117
34 118
34 120
34 121
34 123
34 126
34 128
35 43
35 48
35 59
35 77
35 80
35 81
35 86
35 87
35 93
35 97
35 106
35 119
35 121
35 124
36 51
36 58
36 62
36 102
36 113
36 129
37 38
37 39
37 40
37 42
37 47
37 52
37 54
37 55
37 60
37 61
37 65
37 66
37 67
37 68
37 69
37 71
37 72
37 73
37 74
37 75
37 76
37 78
37 79
37 80
37 87
37 89
37 91
37 92
37 96
37 97
37 98
37 99
37 101
37 103
37 104
37 105
37 106
37 107
37 109
37 110
37 111
37 112
37 114
37 115
37 116
37 117
37 118
37 120
37 121
37 123
37 126
37 128
38 39
38 40
38 42
38 47
38 52
38 54
38 55
38 61
38 65
38 66
38 68
38 69
38 71
38 72
38 73
38 74
38 75
38 76
38 78
38 79
38 80
38 87
38 89
38 91
38 92
38 96
38 97
38 98
38 99
38 101
38 103
38 105
38 107
38 109
38 110
38 111
38 112
38 114
38 115
38 116
38 117
38 118
38 120
38 121
38 123
38 126
38 128
39 40
39 42
39 47
39 52
39 54
39 55
39 61
39 65
39 66
39 68
39 69
39 71
39 72
39 73
39 74
39 75
39 76
39 78
39 79
39 80
39 87
39 89
39 91
39 92
39 96
39 97
39 98
39 99
39 101
39 103
39 104
39 107
39 109
39 110
39 111
39 112
39 114
39 115
39 116
39 117
39 118
39 120
39 121
39 123
39 126
39 128
40 42
40 43
40 47
40 52
40 54
40 55
40 56
40 59
40 60
40 61
40 65
40 66
40 67
40 68
40 69
40 71
40 72
40 73
40 76
40 78
40 79
40 80
40 85
40 86
40 87
40 89
40 91
40 93
40 96
40 97
40 99
40 101
40 103
40 105
40 106
40 109
40 111
40 112
40 114
40 115
40 116
40 117
40 118
40 119
40 120
40 121
40 122
40 126
40 128
42 47
42 52
42 54
42 55
42 60
42 61
42 65
42 66
42 68
42 69
42 71
42 72
42 73
42 74
42 75
42 76
42 78
42 79
42 80
42 85
42 87
42 88
42 89
42 91
42 92
42 96
42 97
42 98
42 99
42 101
42 103
42 104
42 105
42 106
42 107
42 109
42 110
42 111
42 112
42 114
42 115
42 116
42 117
42 118
42 120
42 121
42 123
42 126
42 128
43 47
43 59
43 67
43 69
43 71
43 77
43 80
43 81
43 85
43 86
43 87
43 91
43 93
43 97
43 105
43 106
43 111
43 119
43 121
43 124
44 122
45 50
45 63
45 90
45 95
45 108
46 80
46 87
46 97
46 100
46 121
47 52
47 54
47 55
47 56
47 59
47 61
47 65
47 66
47 67
47 68
47 69
47 71
47 72
47 73
47 80
47 81
47 85
47 86
47 87
47 89
47 91
47 93
47 96
47 97
47 99
47 101
47 103
47 105
47 106
47 109
47 111
47 112
47 114
47 115
47 116
47 117
47 118
47 120
47 121
47 124
47 126
47 128
48 77
48 106
49 94
49 127
50 63
50 90
50 95
50 108
51 58
51 62
51 102
51 113
51 129
52 54
52 55
52 61
52 65
52 66
52 68
52 69
52 71
52 72
52 73
52 74
52 75
52 76
52 78
52 79
52 80
52 89
52 91
52 92
52 96
52 97
52 98
52 99
52 101
52 103
52 104
52 107
52 109
52 110
52 111
52 112
52 114
52 115
52 116
52 117
52 118
52 120
52 121
52 123
52 126
52 128
53 84
54 55
54 60
54 61
54 65
54 66
54 67
54 68
54 69
54 71
54 72
54 73
54 74
54 75
54 76
54 78
54 79
54 80
54 87
54 89
54 91
54 92
54 96
54 97
54 98
54 99
54 101
54 103
54 104
54 105
54 107
54 109
54 110
54 111
54 112
54 114
54 115
54 116
54 117
54 118
54 120
54 121
54 123
54 126
54 128
55 61
55 65
55 66
55 68
55 69
55 71
55 72
55 73
55 74
55 75
55 76
55 78
55 79
55 80
55 87
55 89
55 91
55 96
55 97
55 98
55 99
55 101
55 103
55 104
55 107
55 109
55 110
55 111
55 112
55 114
55 115
55 116
55 117
55 118
55 120
55 121
55 123
55 126
55 128
56 80
56 87
56 97
56 121
57 64
57 94
57 127
58 62
58 102
58 113
58 129
59 69
59 77
59 80
59 81
59 86
59 87
59 91
59 93
59 97
59 105
59 106
59 111
59 118
59 119
59 121
59 124
60 61
60 69
60 72
60 73
60 89
60 91
60 96
60 99
60 101
60 103
60 114
60 117
60 118
60 128
61 65
61 68
61 69
61 71
61 72
61 73
61 74
61 75
61 76
61 78
61 79
61 80
61 87
61 89
61 91
61 92
61 96
61 97
61 99
61 101
61 103
61 104
61 105
61 109
61 110
61 111
61 112
61 114
61 115
61 116
61 117
61 118
61 120
61 121
61 123
61 126
61 128
62 102
62 113
62 129
63 90
63 94
63 95
63 108
64 83
64 94
64 127
65 66
65 68
65 69
65 71
65 72
65 73
65 74
65 75
65 76
65 78
65 79
65 80
65 86
65 87
65 89
65 91
65 92
65 96
65 97
65 99
65 101
65 103
65 104
65 105
65 106
65 109
65 110
65 111
65 112
65 114
65 116
65 117
65 118
65 120
65 121
65 123
65 126
65 128
66 67
66 69
66 71
66 72
66 76
66 79
66 80
66 87
66 89
66 91
66 92
66 96
66 97
66 99
66 101
66 103
66 105
66 109
66 111
66 114
66 115
66 116
66 117
66 118
66 120
66 121
66 123
66 126
66 128
67 71
67 72
67 73
67 79
67 80
67 86
67 87
67 89
67 91
67 92
67 93
67 96
67 97
67 103
67 105
67 111
67 114
67 115
67 116
67 117
67 118
67 121
67 128
68 69
68 71
68 72
68 73
68 75
68 76
68 78
68 79
68 87
68 89
68 91
68 92
68 96
68 97
68 99
68 101
68 103
68 104
68 109
68 111
68 112
68 114
68 115
68 116
68 117
68 118
68 120
68 123
68 126
68 128
69 71
69 72
69 73
69 74
69 75
69 76
69 78
69 79
69 80
69 86
69 87
69 88
69 89
69 91
69 92
69 96
69 97
69 99
69 101
69 103
69 104
69 105
69 106
69 109
69 110
69 111
69 112
69 114
69 115
69 116
69 117
69 118
69 120
69 121
69 123
69 126
69 128
71 72
71 73
71 74
71 75
71 76
71 78
71 79
71 80
71 86
71 87
71 88
71 89
71 91
71 92
71 93
71 96
71 97
71 98
71 99
71 101
71 103
71 104
71 105
71 107
71 109
71 110
71 111
71 112
71 114
71 115
71 116
71 117
71 118
71 120
71 121
71 123
71 126
71 128
72 73
72 74
72 75
72 76
72 78
72 79
72 80
72 86
72 87
72 88
72 89
72 91
72 92
72 93
72 96
72 97
72 98
72 99
72 101
72 103
72 104
72 105
72 106
72 107
72 109
72 110
72 111
72 112
72 114
72 115
72 116
72 117
72 118
72 119
72 120
72 121
72 123
72 126
72 128
73 74
73 75
73 76
73 78
73 79
73 80
73 85
73 87
73 89
73 91
73 92
73 96
73 97
73 98
73 99
73 101
73 103
73 104
73 105
73 107
73 109
73 110
73 111
73 112
73 114
73 115
73 116
73 117
73 118
73 120
73 121
73 123
73 126
73 128
74 75
74 76
74 78
74 89
74 91
74 96
74 98
74 101
74 103
74 104
74 107
74 109
74 110
74 112
74 114
74 116
74 117
74 118
74 120
74 123
74 126
74 128
75 76
75 78
75 89
75 91
75 96
75 101
75 103
75 104
75 109
75 110
75 112
75 114
75 117
75 118
75 120
75 123
75 126
75 128
76 78
76 79
76 89
76 91
76 92
76 96
76 99
76 101
76 103
76 104
76 109
76 110
76 111
76 112
76 114
76 115
76 116
76 117
76 118
76 120
76 123
76 126
76 128
77 80
77 86
77 87
77 93
77 97
77 106
77 119
77 121
78 79
78 80
78 87
78 89
78 91
78 92
78 96
78 97
78 99
78 101
78 103
78 104
78 105
78 109
78 110
78 111
78 112
78 114
78 116
78 117
78 118
78 120
78 121
78 123
78 126
78 128
79 89
79 91
79 92
79 96
79 99
79 101
79 103
79 105
79 109
79 110
79 111
79 112
79 114
79 115
79 116
79 117
79 118
79 120
79 121
79 123
79 126
79 128
80 81
80 85
80 86
80 87
80 89
80 91
80 93
80 96
80 97
80 99
80 100
80 101
80 103
80 105
80 106
80 109
80 110
80 111
80 112
80 114
80 115
80 116
80 117
80 118
80 119
80 120
80 121
80 123
80 124
80 126
80 128
81 86
81 87
81 93
81 97
81 105
81 106
81 111
81 119
81 121
81 124
82 125
83 94
85 87
85 97
85 105
85 106
85 111
85 115
85 117
85 118
85 121
86 87
86 89
86 91
86 93
86 97
86 105
86 106
86 111
86 118
86 119
86 121
86 124
86 128
87 89
87 91
87 93
87 96
87 97
87 99
87 100
87 101
87 103
87 105
87 106
87 109
87 111
87 112
87 114
87 115
87 116
87 117
87 118
87 119
87 120
87 121
87 123
87 124
87 126
87 128
88 89
88 91
88 101
88 103
88 117
89 91
89 92
89 96
89 97
89 98
89 99
89 101
89 103
89 104
89 105
89 107
89 109
89 110
89 111
89 112
89 114
89 115
89 116
89 117
89 118
89 120
89 121
89 123
89 126
89 128
90 95
90 108
91 92
91 96
91 97
91 98
91 99
91 101
91 103
91 104
91 105
91 106
91 107
91 109
91 110
91 111
91 112
91 114
91 115
91 116
91 117
91 118
91 120
91 121
91 123
91 126
91 128
92 96
92 101
92 103
92 111
92 112
92 114
92 115
92 116
92 117
92 118
92 128
93 97
93 105
93 106
93 111
93 118
93 119
93 121
93 124
93 128
94 127
95 108
96 97
96 99
96 101
96 103
96 104
96 105
96 109
96 110
96 111
96 112
96 114
96 115
96 116
96 117
96 118
96 120
96 121
96 123
96 126
96 128
97 99
97 100
97 101
97 103
97 105
97 106
97 109
97 111
97 112
97 114
97 115
97 116
97 117
97 118
97 119
97 120
97 121
97 123
97 124
97 126
97 128
98 101
98 103
98 107
98 109
98 110
98 114
98 117
98 120
98 123
98 126
98 128
99 101
99 103
99 104
99 109
99 110
99 111
99 112
99 114
99 115
99 116
99 117
99 118
99 120
99 121
99 123
99 126
99 128
100 121
101 103
101 104
101 105
101 107
101 109
101 110
101 111
101 112
101 114
101 115
101 116
101 117
101 118
101 120
101 121
101 123
101 126
101 128
102 113
102 129
103 104
103 105
103 106
103 107
103 109
103 110
103 111
103 112
103 114
103 115
103 116
103 117
103 118
103 120
103 121
103 123
103 126
103 128
104 109
104 110
104 112
104 114
104 117
104 118
104 120
104 123
104 126
104 128
105 106
105 111
105 114
105 115
105 116
105 117
105 118
105 119
105 121
105 122
105 124
105 128
106 111
106 114
106 118
106 119
106 121
106 124
107 109
107 110
107 112
107 114
107 117
107 118
107 120
107 123
107 126
107 128
109 110
109 111
109 112
109 114
109 115
109 116
109 117
109 118
109 120
109 121
109 123
109 126
109 128
110 112
110 114
110 116
110 117
110 118
110 120
110 123
110 126
110 128
111 114
111 115
111 116
111 117
111 118
111 119
111 120
111 121
111 123
111 124
111 126
111 128
112 114
112 115
112 116
112 117
112 118
112 120
112 121
112 123
112 126
112 128
113 129
114 115
114 116
114 117
114 118
114 120
114 121
114 123
114 126
114 128
115 116
115 117
115 118
115 120
115 121
115 123
115 126
115 128
116 117
116 118
116 120
116 121
116 123
116 126
116 128
117 118
117 120
117 121
117 123
117 126
117 128
118 119
118 120
118 121
118 123
118 126
118 128
119 121
119 124
120 121
120 123
120 126
120 128
121 123
121 124
121 126
121 128
123 126
123 128
126 128
